
Gurobi 13.0.2 (win64) logging started Thu May 14 17:58:01 2026

Set parameter LogFile to value "results\gurobi_dcflow.log"
Gurobi Optimizer version 13.0.2 build v13.0.2rc1 (win64 - Windows 10.0 (19045.2))

CPU model: Intel(R) Core(TM) i7-14700KF, instruction set [SSE2|AVX|AVX2]
Thread count: 20 physical cores, 28 logical processors, using up to 28 threads

Non-default parameters:
LogToConsole  0

Academic license 2685996 - for non-commercial use only - registered to 20___@mail.scut.edu.cn
Optimize a model with 528 rows, 312 columns and 912 nonzeros (Min)
Model fingerprint: 0x8427e240
Model has 48 linear objective coefficients
Coefficient statistics:
  Matrix range     [1e+00, 6e+02]
  Objective range  [5e+01, 1e+02]
  Bounds range     [8e-01, 6e+00]
  RHS range        [2e-01, 6e+00]

Presolve removed 528 rows and 312 columns
Presolve time: 0.00s
Presolve: All rows and columns removed
Iteration    Objective       Primal Inf.    Dual Inf.      Time
       0    4.8236000e+03   0.000000e+00   0.000000e+00      0s

Solved in 0 iterations and 0.00 seconds (0.00 work units)
Optimal objective  4.823600000e+03

Gurobi 13.0.2 (win64) logging started Thu May 14 18:04:42 2026

Set parameter LogFile to value "results\gurobi_dcflow.log"
Gurobi Optimizer version 13.0.2 build v13.0.2rc1 (win64 - Windows 10.0 (19045.2))

CPU model: Intel(R) Core(TM) i7-14700KF, instruction set [SSE2|AVX|AVX2]
Thread count: 20 physical cores, 28 logical processors, using up to 28 threads

Non-default parameters:
LogToConsole  0

Academic license 2685996 - for non-commercial use only - registered to 20___@mail.scut.edu.cn
Optimize a model with 528 rows, 312 columns and 912 nonzeros (Min)
Model fingerprint: 0x8427e240
Model has 48 linear objective coefficients
Coefficient statistics:
  Matrix range     [1e+00, 6e+02]
  Objective range  [5e+01, 1e+02]
  Bounds range     [8e-01, 6e+00]
  RHS range        [2e-01, 6e+00]

Presolve removed 528 rows and 312 columns
Presolve time: 0.00s
Presolve: All rows and columns removed
Iteration    Objective       Primal Inf.    Dual Inf.      Time
       0    4.8236000e+03   0.000000e+00   0.000000e+00      0s

Solved in 0 iterations and 0.00 seconds (0.00 work units)
Optimal objective  4.823600000e+03

Gurobi 13.0.2 (win64) logging started Thu May 14 18:18:04 2026

Set parameter LogFile to value "results\gurobi_dcflow.log"
Gurobi Optimizer version 13.0.2 build v13.0.2rc1 (win64 - Windows 10.0 (19045.2))

CPU model: Intel(R) Core(TM) i7-14700KF, instruction set [SSE2|AVX|AVX2]
Thread count: 20 physical cores, 28 logical processors, using up to 28 threads

Non-default parameters:
LogToConsole  0

Academic license 2685996 - for non-commercial use only - registered to 20___@mail.scut.edu.cn
Optimize a model with 528 rows, 312 columns and 912 nonzeros (Min)
Model fingerprint: 0x8427e240
Model has 48 linear objective coefficients
Coefficient statistics:
  Matrix range     [1e+00, 6e+02]
  Objective range  [5e+01, 1e+02]
  Bounds range     [8e-01, 6e+00]
  RHS range        [2e-01, 6e+00]

Presolve removed 528 rows and 312 columns
Presolve time: 0.00s
Presolve: All rows and columns removed
Iteration    Objective       Primal Inf.    Dual Inf.      Time
       0    4.8236000e+03   0.000000e+00   0.000000e+00      0s

Solved in 0 iterations and 0.00 seconds (0.00 work units)
Optimal objective  4.823600000e+03

Gurobi 13.0.2 (win64) logging started Thu May 14 18:45:54 2026

Set parameter LogFile to value "D:\GithubProject\Methods\results\opf\gurobi_dcflow.log"
Gurobi Optimizer version 13.0.2 build v13.0.2rc1 (win64 - Windows 10.0 (19045.2))

CPU model: Intel(R) Core(TM) i7-14700KF, instruction set [SSE2|AVX|AVX2]
Thread count: 20 physical cores, 28 logical processors, using up to 28 threads

Non-default parameters:
LogToConsole  0

Academic license 2685996 - for non-commercial use only - registered to 20___@mail.scut.edu.cn
Optimize a model with 528 rows, 312 columns and 912 nonzeros (Min)
Model fingerprint: 0x8427e240
Model has 48 linear objective coefficients
Coefficient statistics:
  Matrix range     [1e+00, 6e+02]
  Objective range  [5e+01, 1e+02]
  Bounds range     [8e-01, 6e+00]
  RHS range        [2e-01, 6e+00]

Presolve removed 528 rows and 312 columns
Presolve time: 0.00s
Presolve: All rows and columns removed
Iteration    Objective       Primal Inf.    Dual Inf.      Time
       0    4.8236000e+03   0.000000e+00   0.000000e+00      0s

Solved in 0 iterations and 0.00 seconds (0.00 work units)
Optimal objective  4.823600000e+03

Gurobi 13.0.2 (win64) logging started Thu May 14 18:56:30 2026

Set parameter LogFile to value "D:\GithubProject\Methods\results\opf\gurobi_dcflow.log"
Gurobi Optimizer version 13.0.2 build v13.0.2rc1 (win64 - Windows 10.0 (19045.2))

CPU model: Intel(R) Core(TM) i7-14700KF, instruction set [SSE2|AVX|AVX2]
Thread count: 20 physical cores, 28 logical processors, using up to 28 threads

Non-default parameters:
LogToConsole  0

Academic license 2685996 - for non-commercial use only - registered to 20___@mail.scut.edu.cn
Optimize a model with 528 rows, 312 columns and 912 nonzeros (Min)
Model fingerprint: 0x8427e240
Model has 48 linear objective coefficients
Coefficient statistics:
  Matrix range     [1e+00, 6e+02]
  Objective range  [5e+01, 1e+02]
  Bounds range     [8e-01, 6e+00]
  RHS range        [2e-01, 6e+00]

Presolve removed 528 rows and 312 columns
Presolve time: 0.00s
Presolve: All rows and columns removed
Iteration    Objective       Primal Inf.    Dual Inf.      Time
       0    4.8236000e+03   0.000000e+00   0.000000e+00      0s

Solved in 0 iterations and 0.00 seconds (0.00 work units)
Optimal objective  4.823600000e+03
